
Gurobi 8.1.1 (win64) logging started 07/06/20 03:19:12

Changed value of parameter LogFile to Results/sslp1_40_50_200_BendersBnC.log
   Prev: gurobi.log  Default: 
Changed value of parameter Heuristics to 0.0
   Prev: 0.05  Min: 0.0  Max: 1.0  Default: 0.05
Changed value of parameter lazyConstraints to 1
   Prev: 0  Min: 0  Max: 1  Default: 0
Changed value of parameter timeLimit to 7177.477220773697
   Prev: 1e+100  Min: 0.0  Max: 1e+100  Default: 1e+100
Optimize a model with 2593 rows, 240 columns and 64363 nonzeros
Variable types: 200 continuous, 40 integer (40 binary)
Coefficient statistics:
  Matrix range     [1e-13, 9e+05]
  Objective range  [5e-03, 8e+01]
  Bounds range     [1e+00, 1e+00]
  RHS range        [1e-13, 1e+04]
Warning: Model contains large matrix coefficient range
         Consider reformulating model or setting NumericFocus parameter
         to avoid numerical issues.
Presolve removed 238 rows and 0 columns
Presolve time: 0.05s
Presolved: 2355 rows, 240 columns, 63156 nonzeros
Variable types: 200 continuous, 40 integer (40 binary)

Root relaxation: objective -5.641511e+02, 345 iterations, 0.05 seconds

    Nodes    |    Current Node    |     Objective Bounds      |     Work
 Expl Unexpl |  Obj  Depth IntInf | Incumbent    BestBd   Gap | It/Node Time

     0     0 -564.15105    0   13          - -564.15105      -     -    0s
     0     0 -563.90932    0   12          - -563.90932      -     -    0s
     0     0 -563.70553    0   12          - -563.70553      -     -    0s
     0     0 -563.50673    0   12          - -563.50673      -     -    0s
     0     0 -563.38304    0   11          - -563.38304      -     -    0s
     0     0 -563.27619    0   11          - -563.27619      -     -    0s
     0     0 -563.13829    0   10          - -563.13829      -     -    0s
     0     0 -563.02813    0   10          - -563.02813      -     -    0s
     0     0 -562.90933    0   11          - -562.90933      -     -    0s
     0     0 -562.81534    0   11          - -562.81534      -     -    0s
     0     0 -562.74804    0   11          - -562.74804      -     -    0s
     0     0 -562.67351    0   10          - -562.67351      -     -    0s
     0     0 -562.58066    0   11          - -562.58066      -     -    0s
     0     0 -562.52069    0   11          - -562.52069      -     -    0s
     0     0 -562.46518    0   11          - -562.46518      -     -    0s
     0     0 -562.41938    0   10          - -562.41938      -     -    0s
     0     0 -562.38421    0   11          - -562.38421      -     -    0s
     0     0 -562.33238    0   11          - -562.33238      -     -    0s
     0     0 -562.28788    0   12          - -562.28788      -     -    0s
     0     0 -562.22033    0   10          - -562.22033      -     -    0s
     0     0 -562.14324    0   11          - -562.14324      -     -    0s
     0     0 -562.08564    0   10          - -562.08564      -     -    0s
     0     0 -562.02518    0   10          - -562.02518      -     -    0s
     0     0 -561.98581    0    9          - -561.98581      -     -    0s
     0     0 -561.95445    0    9          - -561.95445      -     -    0s
     0     0 -561.91160    0   10          - -561.91160      -     -    0s
     0     0 -561.86371    0    9          - -561.86371      -     -    0s
     0     0 -561.81732    0   11          - -561.81732      -     -    0s
     0     0 -561.79078    0   11          - -561.79078      -     -    0s
     0     0 -561.73182    0   11          - -561.73182      -     -    0s
     0     0 -561.70438    0   11          - -561.70438      -     -    0s
     0     0 -561.68366    0   11          - -561.68366      -     -    0s
     0     0 -561.65117    0   11          - -561.65117      -     -    0s
     0     0 -561.61647    0   11          - -561.61647      -     -    0s
     0     0 -561.58130    0   11          - -561.58130      -     -    0s
     0     0 -561.55791    0   10          - -561.55791      -     -    0s
     0     0 -561.51180    0   11          - -561.51180      -     -    0s
     0     0 -561.48216    0   11          - -561.48216      -     -    0s
     0     0 -561.43480    0   11          - -561.43480      -     -    0s
     0     0 -561.38799    0   11          - -561.38799      -     -    0s
     0     0 -561.33761    0   11          - -561.33761      -     -    0s
     0     0 -561.29967    0   11          - -561.29967      -     -    0s
     0     0 -561.27436    0   11          - -561.27436      -     -    0s
     0     0 -561.26141    0   11          - -561.26141      -     -    0s
     0     0 -561.22970    0   11          - -561.22970      -     -    0s
     0     0 -561.20138    0   11          - -561.20138      -     -    0s
     0     0 -561.18147    0   11          - -561.18147      -     -    0s
     0     0 -561.15996    0   10          - -561.15996      -     -    0s
     0     0 -561.12406    0   10          - -561.12406      -     -    0s
     0     0 -561.08716    0   11          - -561.08716      -     -    0s
     0     0 -561.05150    0   11          - -561.05150      -     -    0s
     0     0 -561.01708    0   11          - -561.01708      -     -    0s
     0     0 -560.97789    0   11          - -560.97789      -     -    0s
     0     0 -560.94550    0   10          - -560.94550      -     -    0s
     0     0 -560.92916    0   10          - -560.92916      -     -    0s
     0     0 -560.89953    0   11          - -560.89953      -     -    0s
     0     0 -560.87503    0   10          - -560.87503      -     -    0s
     0     0 -560.85069    0   10          - -560.85069      -     -    0s
     0     0 -560.82279    0   10          - -560.82279      -     -    0s
     0     0 -560.79773    0   10          - -560.79773      -     -    0s
     0     0 -560.76443    0    9          - -560.76443      -     -    0s
     0     0 -560.73668    0   10          - -560.73668      -     -    0s
     0     0 -560.69767    0   10          - -560.69767      -     -    0s
     0     0 -560.67895    0    9          - -560.67895      -     -    0s
     0     0 -560.65634    0   10          - -560.65634      -     -    0s
     0     0 -560.62268    0    9          - -560.62268      -     -    0s
     0     0 -560.59668    0   11          - -560.59668      -     -    0s
     0     0 -560.56301    0   10          - -560.56301      -     -    1s
     0     0 -560.54347    0   10          - -560.54347      -     -    1s
     0     0 -560.51335    0   10          - -560.51335      -     -    1s
     0     0 -560.48146    0   11          - -560.48146      -     -    1s
     0     0 -560.45383    0    9          - -560.45383      -     -    1s
     0     0 -560.42439    0   10          - -560.42439      -     -    1s
     0     0 -560.40262    0   11          - -560.40262      -     -    1s
     0     0 -560.39013    0   11          - -560.39013      -     -    1s
     0     0 -560.37409    0   10          - -560.37409      -     -    1s
     0     0 -560.34214    0   10          - -560.34214      -     -    1s
     0     0 -560.31282    0   11          - -560.31282      -     -    1s
     0     0 -560.29634    0    9          - -560.29634      -     -    1s
     0     0 -560.26782    0    8          - -560.26782      -     -    1s
     0     0 -560.24820    0    9          - -560.24820      -     -    1s
     0     0 -560.23418    0    9          - -560.23418      -     -    1s
     0     0 -560.20624    0    9          - -560.20624      -     -    1s
     0     0 -560.19321    0   10          - -560.19321      -     -    1s
     0     0 -560.16327    0   10          - -560.16327      -     -    1s
     0     0 -560.14017    0   11          - -560.14017      -     -    1s
     0     0 -560.12977    0   10          - -560.12977      -     -    1s
     0     0 -560.11049    0   11          - -560.11049      -     -    1s
     0     0 -560.06794    0    8          - -560.06794      -     -    1s
     0     0 -560.05376    0    9          - -560.05376      -     -    1s
     0     0 -560.05221    0   10          - -560.05221      -     -    1s
     0     0 -560.05001    0   11          - -560.05001      -     -    1s
     0     0 -560.03711    0    9          - -560.03711      -     -    1s
     0     0 -560.02460    0    9          - -560.02460      -     -    1s
     0     0 -560.00240    0    9          - -560.00240      -     -    1s
     0     0 -559.99732    0    9          - -559.99732      -     -    1s
     0     0 -559.98852    0    8          - -559.98852      -     -    1s
     0     0 -559.98185    0    8          - -559.98185      -     -    1s
     0     0 -559.97664    0    9          - -559.97664      -     -    1s
     0     0 -559.97217    0    9          - -559.97217      -     -    1s
     0     0 -559.96253    0    8          - -559.96253      -     -    1s
     0     0 -559.95885    0    9          - -559.95885      -     -    1s
     0     0 -559.95274    0    8          - -559.95274      -     -    1s
     0     0 -559.94923    0    8          - -559.94923      -     -    1s
     0     0 -559.92948    0    8          - -559.92948      -     -    1s
     0     0 -559.92481    0    7          - -559.92481      -     -    1s
     0     0 -559.92262    0    8          - -559.92262      -     -    1s
     0     0 -559.91858    0    8          - -559.91858      -     -    1s
     0     0 -559.91484    0    9          - -559.91484      -     -    1s
     0     0 -559.91170    0   10          - -559.91170      -     -    1s
     0     0 -559.90968    0   10          - -559.90968      -     -    1s
     0     0 -559.90627    0    9          - -559.90627      -     -    1s
     0     0 -559.90327    0    9          - -559.90327      -     -    1s
     0     0 -559.89990    0    7          - -559.89990      -     -    1s
     0     0 -559.89733    0    9          - -559.89733      -     -    1s
     0     0 -559.89421    0    9          - -559.89421      -     -    1s
     0     0 -559.88845    0    9          - -559.88845      -     -    1s
     0     0 -559.88787    0    8          - -559.88787      -     -    1s
     0     0 -559.88767    0    8          - -559.88767      -     -    1s
     0     0 -559.88738    0    8          - -559.88738      -     -    1s
     0     0 -559.88584    0    8          - -559.88584      -     -    1s
     0     0 -559.88046    0    8          - -559.88046      -     -    1s
     0     0 -559.87928    0    8          - -559.87928      -     -    1s
     0     0 -559.87867    0    8          - -559.87867      -     -    1s
     0     0 -559.87739    0   10          - -559.87739      -     -    1s
     0     0 -559.87304    0    7          - -559.87304      -     -    1s
     0     0 -559.87253    0    8          - -559.87253      -     -    1s
     0     0 -559.87185    0    8          - -559.87185      -     -    1s
     0     0 -559.87007    0    9          - -559.87007      -     -    1s
     0     0 -559.86830    0    9          - -559.86830      -     -    1s
     0     0 -559.86708    0    9          - -559.86708      -     -    1s
     0     0 -559.86636    0    8          - -559.86636      -     -    1s
     0     0 -559.86342    0    8          - -559.86342      -     -    1s
     0     0 -559.86264    0    9          - -559.86264      -     -    1s
     0     0 -559.85925    0    8          - -559.85925      -     -    1s
     0     0 -559.85857    0    9          - -559.85857      -     -    1s
     0     0 -559.85787    0    8          - -559.85787      -     -    1s
     0     0 -559.85659    0    9          - -559.85659      -     -    1s
     0     0 -559.85372    0    8          - -559.85372      -     -    1s
     0     0 -559.85345    0   10          - -559.85345      -     -    1s
     0     0 -559.85280    0    9          - -559.85280      -     -    1s
     0     0 -559.85275    0    9          - -559.85275      -     -    1s
     0     0 -559.84017    0    8          - -559.84017      -     -    1s
     0     0 -559.83527    0    9          - -559.83527      -     -    1s
     0     0 -559.83236    0    7          - -559.83236      -     -    1s
     0     0 -559.83146    0    7          - -559.83146      -     -    1s
     0     0 -559.82925    0    7          - -559.82925      -     -    1s
     0     0 -559.82757    0    6          - -559.82757      -     -    1s
     0     0 -559.82740    0    7          - -559.82740      -     -    2s
     0     0 -559.82740    0    7          - -559.82740      -     -    2s
     0     2 -559.82740    0    7          - -559.82740      -     -    2s
     9     9 -558.75394    5   10          - -559.51944      -  52.1    5s
    31    28 -554.57696   12    7          - -559.51944      -  57.4   10s
    43    36 -546.54971   17    -          - -559.51944      -  61.0   15s
    64    55 -543.50289   23    6          - -559.51944      -  68.8   20s
    74    58 -541.93869   27    6          - -559.51944      -  68.7   26s
    79    63 -446.71391   25    -          - -559.51944      -  67.5   30s
    88    67 -531.04614   33    5          - -559.51944      -  69.3   35s
*  106    76              40    9095.8947967 -559.33736   106%  75.6   42s
*  109    75              40    -320.5799910 -559.11257  74.4%  77.0   46s
   116    77     cutoff   40      -320.57999 -558.98222  74.4%  79.1   53s
   120    80 -520.60762    5    3 -320.57999 -558.98222  74.4%  80.9   55s
   135    91 -487.64184   35    - -320.57999 -558.98222  74.4%  80.1   62s
   145    99 -475.17162   37    3 -320.57999 -558.98222  74.4%  80.1   65s
   158   110 -471.99190   20    1 -320.57999 -558.98222  74.4%  78.9   71s
   162   107 -470.73204   21    - -320.57999 -558.98222  74.4%  80.0   75s
*  166   110              40    -335.1499900 -558.98222  66.8%  80.1   78s
   179   113 -506.30089   24    2 -335.14999 -558.98222  66.8%  80.5   80s
   198   127 -439.99305   26    2 -335.14999 -558.98222  66.8%  78.0   94s
   210   131 -445.38297   24    - -335.14999 -558.98222  66.8%  77.3  106s
   224   138 -517.58682    6    - -335.14999 -558.42367  66.6%  77.4  119s
   229   135 -479.11662    6    3 -335.14999 -558.42367  66.6%  77.0  121s
   237   147 -518.51091    8    8 -335.14999 -558.42367  66.6%  75.6  128s
   241   145 -518.25920   10    7 -335.14999 -558.42367  66.6%  75.6  130s
   246   152 -517.97503   12    6 -335.14999 -558.42367  66.6%  75.1  136s
   255   158 -515.12602   17    - -335.14999 -558.42367  66.6%  74.4  141s
   260   158 -514.38626   19    - -335.14999 -558.42367  66.6%  74.7  145s
   269   162 -510.90655   20    - -335.14999 -558.42367  66.6%  75.2  154s
   272   166 -430.24296   26    - -335.14999 -558.42367  66.6%  75.5  157s
   279   170 -429.22071   26    - -335.14999 -558.42367  66.6%  75.4  163s
   282   171 -418.41571   19    4 -335.14999 -558.42367  66.6%  75.9  165s
   291   174 -508.27314   24    1 -335.14999 -558.42367  66.6%  75.1  172s
   294   177 -427.44678   24    - -335.14999 -558.42367  66.6%  75.0  176s
   301   177 -440.44999   26    - -335.14999 -558.42367  66.6%  75.6  183s
   304   180 -425.41814   29    - -335.14999 -558.42367  66.6%  75.3  186s
   309   183 -483.99581   30    - -335.14999 -558.42367  66.6%  75.7  192s
   315   183 -426.12686   30    - -335.14999 -558.42367  66.6%  75.9  199s
   318   185 -435.08674   26    - -335.14999 -558.42367  66.6%  75.6  203s
   323   186 -432.89135   26    3 -335.14999 -558.42367  66.6%  75.5  207s
   325   187 -423.54407   30    - -335.14999 -558.42367  66.6%  75.6  210s
   327   184 -435.39054   28    - -335.14999 -558.42367  66.6%  75.3  215s
   334   189 -429.56248   28    - -335.14999 -558.42367  66.6%  75.0  223s
   340   192 -428.71101   28    2 -335.14999 -558.42367  66.6%  75.3  229s
   342   192 -420.37507   30    - -335.14999 -558.42367  66.6%  75.3  231s
   350   200 -490.69443   33    - -335.14999 -558.42367  66.6%  76.2  236s
   355   204 -482.55016   34    - -335.14999 -558.42367  66.6%  76.9  240s
   362   206 -377.60481   38    - -335.14999 -558.42367  66.6%  78.0  246s
   367   208 -428.84828   37    - -335.14999 -558.42367  66.6%  78.8  252s
   374   208 -428.63581   38    - -335.14999 -558.42367  66.6%  78.6  259s
   379   213 -426.14473   38    - -335.14999 -558.42367  66.6%  79.2  268s
   383   214 -364.46495   38    - -335.14999 -558.42367  66.6%  79.9  273s
   388   218     cutoff   38      -335.14999 -558.42367  66.6%  80.1  277s
   391   211 -412.19630   38    - -335.14999 -558.33010  66.6%  80.8  280s
   401   205 -352.69371   38    - -335.14999 -558.15240  66.5%  81.6  288s
   413   208 -350.38433   38    - -335.14999 -557.28044  66.3%  82.3  296s
   422   218 -520.87891   12    5 -335.14999 -556.78593  66.1%  82.8  302s
   425   218 -352.38057   37    - -335.14999 -556.78593  66.1%  82.9  305s
   441   226     cutoff   38      -335.14999 -555.29796  65.7%  82.4  315s
   452   227 -337.85914   38    - -335.14999 -554.56381  65.5%  82.7  324s
   461   233 -515.35567   13    5 -335.14999 -554.56381  65.5%  82.7  332s
   469   239 -442.86432   27    2 -335.14999 -554.56381  65.5%  81.9  337s
   472   233 -473.48362   16    2 -335.14999 -554.56381  65.5%  82.0  340s
   480   240 -502.23582   28    - -335.14999 -554.56381  65.5%  81.1  347s
   486   241 -511.62014   21    - -335.14999 -553.12890  65.0%  80.7  357s
   497   249 -493.65561   22    - -335.14999 -553.12890  65.0%  80.7  367s
   501   254 -495.99333   29    6 -335.14999 -553.12890  65.0%  80.8  370s
   520   272 -490.63480   35    5 -335.14999 -553.12890  65.0%  80.1  376s
   529   277 -453.43793   37    - -335.14999 -553.12890  65.0%  80.2  385s
   540   278 -337.15363   39    1 -335.14999 -547.91960  63.5%  81.5  393s
   548   275     cutoff   40      -335.14999 -547.91960  63.5%  81.3  396s
   554   279 -344.75499   40    - -335.14999 -547.21770  63.3%  81.9  404s
   561   277     cutoff   40      -335.14999 -543.15189  62.1%  81.9  407s
   579   285 -501.35369   22    6 -335.14999 -542.15434  61.8%  80.8  419s
   591   290 -498.91616   27    3 -335.14999 -540.44538  61.3%  80.5  430s
   612   296 -458.72304   29    - -335.14999 -540.42879  61.2%  79.5  448s
   621   305 -361.08499   40    - -335.14999 -540.37360  61.2%  79.2  458s
*  630   309              40    -340.5649905 -540.37360  58.7%  79.1  466s
*  641   308              40    -355.2249891 -539.16053  51.8%  79.2  480s
*  644   306              40    -379.0749896 -539.16053  42.2%  79.5  481s
   649   307 -454.06114   30    - -379.07499 -539.16053  42.2%  79.9  487s
   663   311 -431.79987   31    - -379.07499 -539.16053  42.2%  79.4  494s
   667   317 -494.02033   40    - -379.07499 -539.16053  42.2%  79.6  496s
   674   314 -391.80075   31    - -379.07499 -539.16053  42.2%  80.1  504s
   680   319     cutoff   40      -379.07499 -539.16053  42.2%  79.8  509s
   688   319 -392.46527   32    - -379.07499 -539.16053  42.2%  80.2  516s
   704   320 -390.39097   32    - -379.07499 -539.16053  42.2%  79.9  528s
   712   326     cutoff   40      -379.07499 -539.16053  42.2%  79.5  534s
   714   329     cutoff   32      -379.07499 -539.16053  42.2%  79.7  536s
   724   324 -387.70539   35    - -379.07499 -530.91232  40.1%  79.6  547s
   744   330 -495.27376   28    2 -379.07499 -527.94482  39.3%  78.8  564s
   754   342 -439.05336   38    1 -379.07499 -526.07537  38.8%  78.2  571s
   765   337 -495.05502   35    3 -379.07499 -524.00956  38.2%  78.3  583s
   777   348     cutoff   39      -379.07499 -523.31233  38.0%  78.0  591s
   786   339     cutoff   40      -379.07499 -522.90221  37.9%  78.3  601s
   810   342     cutoff   40      -379.07499 -521.75906  37.6%  77.4  621s
   830   357     cutoff   40      -379.07499 -521.65746  37.6%  76.7  634s
   853   377 -476.97466   12    1 -379.07499 -521.65746  37.6%  75.7  645s
   865   371 -424.40967   17    2 -379.07499 -521.65746  37.6%  75.5  656s
   883   389 -418.22031   24    - -379.07499 -521.20400  37.5%  75.1  674s
   902   403 -408.78618   24    - -379.07499 -521.20400  37.5%  74.8  689s
   906   392     cutoff   24      -379.07499 -521.20400  37.5%  74.9  693s
   915   404 -413.54191   26    - -379.07499 -521.13336  37.5%  74.9  708s
   930   412 -456.21602   27    - -379.07499 -521.13336  37.5%  74.5  720s
   934   411 -440.92475    7    2 -379.07499 -521.13336  37.5%  74.7  727s
   947   424 -454.06567   27    6 -379.07499 -521.13336  37.5%  74.6  735s
   960   428 -453.39773   28    - -379.07499 -521.13336  37.5%  74.5  751s
   962   425 -417.41261   20    2 -379.07499 -521.13336  37.5%  74.7  756s
   970   434 -449.37335   29    - -379.07499 -521.13336  37.5%  74.9  761s
   974   434 -409.48189   24    - -379.07499 -521.13336  37.5%  75.0  767s
   980   440 -449.65081   31    8 -379.07499 -521.13336  37.5%  75.2  770s
   982   437 -462.67071   25    - -379.07499 -521.13336  37.5%  75.1  775s
   987   443 -446.83743   33    - -379.07499 -521.13336  37.5%  75.1  780s
   997   441 -455.61172   26    7 -379.07499 -521.13336  37.5%  75.3  793s
  1003   449 -454.67369   27    6 -379.07499 -521.13336  37.5%  75.4  801s
  1009   450 -452.30811   29    6 -379.07499 -521.13336  37.5%  75.6  808s
  1015   450 -449.37437   31    - -379.07499 -521.13336  37.5%  75.7  818s
  1025   450 -391.45065   30    - -379.07499 -521.13336  37.5%  75.8  833s
  1048   453 -392.06416   31    - -379.07499 -521.13336  37.5%  75.4  855s
  1058   468 -390.40073   33    1 -379.07499 -521.13336  37.5%  75.7  870s
  1083   473 -386.13292   36    - -379.07499 -521.13336  37.5%  75.1  892s
  1088   479 -473.61628   17    1 -379.07499 -521.13336  37.5%  75.3  895s
  1106   481 -389.48294   36    - -379.07499 -520.21169  37.2%  75.1  915s
  1119   492     cutoff   38      -379.07499 -520.16040  37.2%  75.0  930s
  1132   502 -478.84116   19    3 -379.07499 -520.13640  37.2%  74.9  942s
  1141   498 -464.86327   26    3 -379.07499 -520.06629  37.2%  75.2  947s
  1154   512 -452.27949   29    - -379.07499 -520.06629  37.2%  75.0  967s
  1158   506 -480.43588    7    4 -379.07499 -520.06629  37.2%  75.1  975s
  1176   526 -452.18933   31    5 -379.07499 -520.06629  37.2%  74.8  986s
  1180   524 -435.31836   13    3 -379.07499 -520.06629  37.2%  74.9  994s
  1189   536 -448.79979   34    - -379.07499 -520.06629  37.2%  75.0  999s
  1192   532 -417.16354   20    2 -379.07499 -519.85141  37.1%  75.1 1006s
  1202   543 -449.32014   36    4 -379.07499 -519.85141  37.1%  75.1 1014s
  1205   537 -405.65297   24    - -379.07499 -519.61487  37.1%  75.3 1023s
  1216   547 -400.50520   38    2 -379.07499 -519.50468  37.0%  75.4 1031s
  1222   545 -459.08071   25    5 -379.07499 -519.50468  37.0%  75.5 1041s
  1235   547 -457.92794   27    - -379.07499 -519.28919  37.0%  75.3 1057s
  1244   555 -435.23780   21    1 -379.07499 -519.25113  37.0%  75.4 1067s
  1256   555 -453.54771   27    7 -379.07499 -519.25113  37.0%  75.5 1085s
  1266   568 -451.98750   30    6 -379.07499 -519.25113  37.0%  75.6 1097s
  1280   571 -450.52655   32    - -379.07499 -519.25113  37.0%  75.6 1115s
  1290   582 -448.71552   34    6 -379.07499 -519.25113  37.0%  75.7 1129s
  1294   586 -444.30161   36    - -379.07499 -519.25113  37.0%  75.9 1134s
  1301   587 -404.70570   38    2 -379.07499 -519.25113  37.0%  76.3 1141s
  1310   594     cutoff   39      -379.07499 -519.11246  36.9%  76.3 1152s
  1320   597     cutoff   38      -379.07499 -519.11142  36.9%  76.2 1163s
  1333   609 -391.83215   36    - -379.07499 -519.11142  36.9%  76.1 1167s
  1337   606 -466.37363   20    2 -379.07499 -519.11142  36.9%  76.3 1173s
  1348   617 -458.24170   26    3 -379.07499 -519.11142  36.9%  76.4 1187s
  1379   622 -450.58016   32    1 -379.07499 -519.00301  36.9%  76.0 1211s
  1407   643     cutoff   40      -379.07499 -518.93368  36.9%  75.9 1241s
  1453   656 -434.65259   12    2 -379.07499 -518.86784  36.9%  75.3 1278s
  1466   674 -470.06147   19    - -379.07499 -518.86784  36.9%  75.2 1290s
  1478   671 -421.67189   17    2 -379.07499 -518.62480  36.8%  75.2 1308s
  1497   689 -407.10896   25    - -379.07499 -518.50912  36.8%  75.1 1327s
  1504   681 -407.22824   24    - -379.07499 -518.40446  36.8%  75.1 1344s
  1520   690 -405.01040   25    4 -379.07499 -518.18536  36.7%  75.4 1369s
  1539   705 -455.29424   27    6 -379.07499 -518.18536  36.7%  75.3 1387s
  1542   700 -401.49283   26    - -379.07499 -518.11086  36.7%  75.5 1396s
  1550   713 -399.57067   26    6 -379.07499 -518.11086  36.7%  75.7 1403s
  1553   717 -449.47551   33    7 -379.07499 -518.11086  36.7%  75.7 1405s
  1555   719     cutoff   28      -379.07499 -518.11086  36.7%  75.8 1411s
  1562   716 -393.02040   30    - -379.07499 -518.11086  36.7%  76.0 1421s
  1575   721     cutoff   32      -379.07499 -518.11086  36.7%  76.1 1442s
  1597   725 -391.53544   35    - -379.07499 -518.11086  36.7%  76.0 1466s
  1617   736     cutoff   37      -379.07499 -517.82133  36.6%  75.9 1492s
  1650   745 -465.12386   19    - -379.07499 -517.81528  36.6%  75.6 1530s
  1685   769 -458.56806   24    4 -379.07499 -517.74508  36.6%  75.2 1562s
  1693   776 -425.55075   16    1 -379.07499 -517.74508  36.6%  75.2 1572s
  1706   783 -398.00470   25    - -379.07499 -517.71806  36.6%  75.3 1603s
  1733   803 -404.10782   25    4 -379.07499 -517.69953  36.6%  74.9 1629s
  1741   794 -394.79643   26    - -379.07499 -517.64502  36.6%  74.9 1661s
  1773   815 -394.35506   26    - -379.07499 -517.61951  36.5%  74.5 1712s
  1781   831 -449.46403   28    5 -379.07499 -517.61951  36.5%  74.8 1722s
  1786   836 -450.50628   32    3 -379.07499 -517.61951  36.5%  74.8 1726s
  1792   835 -444.49674   31    - -379.07499 -517.61951  36.5%  74.8 1739s
  1803   843 -445.01541   33    7 -379.07499 -517.61951  36.5%  75.1 1760s
  1824   853 -442.43280   36    - -379.07499 -517.61951  36.5%  75.0 1780s
  1838   865 -395.69437   39    - -379.07499 -517.49527  36.5%  75.0 1804s
  1885   880     cutoff   39      -379.07499 -517.48829  36.5%  74.6 1840s
  1892   888 -462.17963   25    - -379.07499 -517.37529  36.5%  74.6 1847s
  1916   900 -478.69154   15    2 -379.07499 -517.37529  36.5%  74.5 1878s
  1936   917 -478.76689   21    2 -379.07499 -517.37529  36.5%  74.5 1904s
  1969   932 -417.28971   25    4 -379.07499 -516.91698  36.4%  74.3 1942s
  1997   947 -452.03040   29    4 -379.07499 -516.91698  36.4%  74.2 1971s
  2012   966 -380.79984   34    - -379.07499 -516.91698  36.4%  74.2 2000s
  2051   973 -443.28917   38    - -379.07499 -516.80375  36.3%  73.8 2044s
  2074   990     cutoff   36      -379.07499 -516.64251  36.3%  73.7 2056s
  2093   994 -513.92510    9    - -379.07499 -516.64251  36.3%  73.6 2088s
  2109  1011 -460.53569   24    - -379.07499 -516.64251  36.3%  73.6 2104s
  2119  1005 -510.70889    9   10 -379.07499 -516.64251  36.3%  73.7 2135s
  2130  1022 -400.74838   24    - -379.07499 -516.64251  36.3%  73.9 2144s
  2149  1024 -394.05419   26    - -379.07499 -516.50127  36.3%  73.8 2179s
  2208  1037     cutoff   40      -379.07499 -516.39298  36.2%  73.1 2249s
  2234  1061 -401.57507   27    - -379.07499 -516.34373  36.2%  73.0 2267s
  2250  1062 -399.08503   24    - -379.07499 -516.20451  36.2%  73.0 2308s
  2293  1089 -452.63692   25    4 -379.07499 -515.90490  36.1%  72.7 2352s
  2311  1105 -397.11742   27    - -379.07499 -515.90490  36.1%  72.7 2371s
  2315  1105 -391.45681   26    - -379.07499 -515.75254  36.1%  72.9 2397s
  2334  1126 -453.13500   30    6 -379.07499 -515.75254  36.1%  72.8 2411s
  2340  1120 -435.33993   19    1 -379.07499 -515.62895  36.0%  72.8 2433s
  2361  1141 -450.43047   34    6 -379.07499 -515.62895  36.0%  72.9 2451s
  2367  1133 -453.40161   29    4 -379.07499 -515.62895  36.0%  73.1 2474s
  2395  1146 -447.87908   35    4 -379.07499 -515.40106  36.0%  73.0 2514s
  2430  1164 -380.77909   39    - -379.07499 -515.30248  35.9%  73.0 2559s
  2464  1175     cutoff   39      -379.07499 -515.02686  35.9%  72.7 2612s
  2538  1193 -467.60942   23    - -379.07499 -514.84189  35.8%  72.1 2702s
  2602  1225 -446.99694   26    - -379.07499 -514.63160  35.8%  71.6 2792s
  2652  1260 -443.97729   26    6 -379.07499 -514.56855  35.7%  71.5 2859s
  2688  1284 -441.19944   29    7 -379.07499 -514.24838  35.7%  71.3 2913s
  2712  1304 -507.80914   15    9 -379.07499 -514.24838  35.7%  71.3 2952s
  2723  1317     cutoff   37      -379.07499 -514.24838  35.7%  71.3 2957s
  2745  1316 -473.27172   20    3 -379.07499 -513.99907  35.6%  71.3 3010s
  2781  1340     cutoff   35      -379.07499 -513.90568  35.6%  70.9 3043s
  2789  1333 -454.79701   26    3 -379.07499 -513.74276  35.5%  70.9 3071s
  2814  1365 -499.68623   25    5 -379.07499 -513.74276  35.5%  70.9 3096s
  2820  1354 -390.22897   27    - -379.07499 -513.73706  35.5%  70.9 3127s
  2863  1374 -389.95144   27    - -379.07499 -513.73706  35.5%  70.6 3180s
  2892  1383 -444.27026   31    - -379.07499 -513.73706  35.5%  70.7 3228s
  2922  1392 -379.63954   35    - -379.07499 -513.73706  35.5%  70.6 3279s
  2932  1402     cutoff   40      -379.07499 -513.73706  35.5%  70.6 3288s
  2950  1414     cutoff   39      -379.07499 -510.53759  34.7%  70.6 3321s
  2970  1428 -496.08535   25    5 -379.07499 -510.53759  34.7%  70.6 3343s
  2984  1440 -480.90563   26    8 -379.07499 -510.53759  34.7%  70.7 3350s
  2992  1436 -444.09105   34    5 -379.07499 -510.42473  34.7%  70.7 3372s
  3016  1455 -474.28809   34    6 -379.07499 -510.07905  34.6%  70.5 3389s
  3027  1454     cutoff   40      -379.07499 -509.99127  34.5%  70.6 3426s
  3073  1460 -449.12655   26    - -379.07499 -509.79468  34.5%  70.5 3502s
  3093  1483 -468.32593   20    3 -379.07499 -509.47231  34.4%  70.5 3521s
  3124  1483 -385.03880   26    2 -379.07499 -509.33291  34.4%  70.2 3573s
  3135  1501 -434.40285   24    - -379.07499 -509.19060  34.3%  70.2 3584s
  3150  1511 -444.30990   27    - -379.07499 -509.17218  34.3%  70.2 3620s
  3165  1522 -440.60773   31    7 -379.07499 -509.12964  34.3%  70.1 3627s
  3175  1525 -441.01544   27    5 -379.07499 -509.12964  34.3%  70.1 3658s
  3199  1541 -436.66366   33    6 -379.07499 -509.12964  34.3%  70.2 3705s
  3220  1563 -482.21713    6    7 -379.07499 -509.12964  34.3%  70.3 3881s
  3222  1564 -392.64046   38   25 -379.07499 -509.12964  34.3%  70.3 4066s
  3223  1565 -482.17731    6   25 -379.07499 -509.12964  34.3%  70.3 4075s
  3225  1569 -509.12964   15   26 -379.07499 -509.12964  34.3%  70.7 4477s
  3227  1571 -509.12964   16   25 -379.07499 -509.12964  34.3%  70.9 4523s
  3229  1572 -509.12964   16   17 -379.07499 -509.12964  34.3%  71.0 4634s
  3231  1573 -509.12964   17   25 -379.07499 -509.12964  34.3%  71.1 4793s
  3233  1575 -509.12964   17   16 -379.07499 -509.12964  34.3%  71.3 4912s
  3235  1576 -509.12964   18   23 -379.07499 -509.12964  34.3%  71.4 5045s
  3237  1576 -509.12964   18   17 -379.07499 -509.12964  34.3%  71.7 5169s
  3240  1576 -509.12964   19   23 -379.07499 -509.12964  34.3%  71.8 5214s
  3243  1580 -509.12964   19   18 -379.07499 -509.12964  34.3%  72.1 5286s
  3246  1580 -509.12964   20   22 -379.07499 -509.12964  34.3%  72.2 5335s
  3249  1585 -509.12964   20   18 -379.07499 -509.12964  34.3%  72.3 5383s
  3253  1586 -509.12964   21   22 -379.07499 -509.12964  34.3%  72.4 5443s
  3257  1587 -509.12964   22   21 -379.07499 -509.12964  34.3%  72.7 5490s
  3261  1590 -509.12964   22   13 -379.07499 -509.12964  34.3%  73.0 5547s
  3266  1594 -509.12964   23   22 -379.07499 -509.12964  34.3%  73.2 5595s
  3269  1597 -509.12964   23   13 -379.07499 -509.12964  34.3%  73.4 5637s
  3272  1597 -509.12964   24   22 -379.07499 -509.12964  34.3%  73.5 5697s
  3275  1601 -509.12964   24   13 -379.07499 -509.12964  34.3%  73.9 5734s
  3278  1602 -509.12964   25   23 -379.07499 -509.12964  34.3%  74.0 5785s
  3282  1604 -509.12964   25   12 -379.07499 -509.12964  34.3%  74.2 5875s
  3286  1604 -498.30484   26    2 -379.07499 -509.12964  34.3%  74.4 5963s
  3291  1608 -509.12964   27   12 -379.07499 -509.12964  34.3%  74.7 6048s
  3297  1614 -498.46062   28    7 -379.07499 -509.12964  34.3%  75.0 6112s
  3304  1617 -509.12964   30   20 -379.07499 -509.12964  34.3%  75.3 6177s
  3310  1615 -509.12964   31   19 -379.07499 -509.12964  34.3%  75.5 6244s
  3318  1622 -503.65812   32   10 -379.07499 -509.12964  34.3%  75.9 6318s
  3331  1624 -509.12964   34   18 -379.07499 -509.12964  34.3%  76.2 6377s
  3345  1629 -507.75589   35   10 -379.07499 -509.12964  34.3%  76.4 6438s
  3362  1632 -492.53201   37    4 -379.07499 -509.12964  34.3%  76.6 6497s
  3377  1641 -509.12964   39   14 -379.07499 -509.12964  34.3%  76.7 6554s
  3389  1645 -509.12964   41   13 -379.07499 -509.12964  34.3%  77.0 6607s
  3404  1656 -500.91721   43    6 -379.07499 -509.12964  34.3%  77.3 6665s
  3420  1656 -478.81055   45    5 -379.07499 -509.12964  34.3%  77.7 6739s
  3447  1651 -507.53514   49    5 -379.07499 -509.12964  34.3%  78.1 6830s
  3462  1660 -442.04474   21    2 -379.07499 -509.12964  34.3%  78.3 6837s
  3480  1661 -509.12964   22   18 -379.07499 -509.12964  34.3%  78.4 6906s
  3496  1680 -509.12964   29   12 -379.07499 -509.12964  34.3%  78.5 6962s
  3527  1691 -500.01121   44    9 -379.07499 -509.12964  34.3%  78.4 7029s
  3583  1690     cutoff   54      -379.07499 -509.12964  34.3%  78.7 7119s
  3619  1696     cutoff   54      -379.07499 -509.12964  34.3%  78.8 7149s
  3632  1685     cutoff   54      -379.07499 -509.12964  34.3%  78.9 7177s

Cutting planes:
  Lazy constraints: 30800

Explored 3651 nodes (289936 simplex iterations) in 7183.78 seconds
Thread count was 4 (of 4 available processors)

Solution count 6: -379.075 -355.225 -340.565 ... 9095.89

Time limit reached
Best objective -3.790749896048e+02, best bound -5.091296412030e+02, gap 34.3084%
